382 5
10 10 10 10 10 

0 0 0 0 0 0 3 2 54 66 
0 0 0 0 0 0 6 3 4 5 8 16 309 
3 1 1 1 1 1 2 15 6 
5 2 1 3 1 3 2 10 7 
5 4 2 1 2 3 2 15 7 
9 3 4 1 5 3 4 17 11 10 9 
1 2 2 2 2 4 5 17 13 12 11 9 
7 4 3 2 1 4 3 17 10 9 
3 1 3 4 4 3 4 29 19 18 14 
6 2 1 2 4 1 3 21 13 12 
9 3 2 1 2 2 4 29 23 19 18 
9 3 3 2 2 2 4 29 25 23 19 
8 1 4 3 2 2 4 29 25 22 20 
5 3 2 1 2 2 3 23 21 20 
9 2 2 3 3 3 3 29 25 19 
4 1 3 6 2 1 2 29 18 
5 2 2 3 2 5 2 29 19 
7 4 3 2 3 3 2 25 20 
7 2 2 3 3 1 2 27 22 
2 2 2 3 2 3 3 28 27 24 
5 3 1 2 4 1 1 22 
2 4 3 4 5 2 2 28 24 
10 1 1 3 3 2 4 34 30 27 26 
4 2 3 2 5 1 3 34 30 26 
1 3 2 1 2 2 3 34 30 27 
3 2 2 2 4 1 3 35 33 31 
7 3 2 2 1 2 3 35 33 31 
2 3 6 3 1 2 3 38 34 31 
8 2 3 3 2 3 3 38 34 32 
10 2 2 3 2 1 2 38 32 
10 3 4 5 1 2 1 32 
4 2 3 2 2 3 6 52 51 40 39 37 36 
10 2 4 4 3 2 4 40 38 37 36 
4 3 3 1 2 3 4 51 39 37 36 
5 5 3 4 2 3 4 52 39 37 36 
6 5 5 2 1 6 8 49 48 47 45 44 43 42 41 
8 3 5 2 2 1 4 49 45 44 42 
8 3 2 1 2 3 4 51 48 43 42 
2 1 1 3 3 2 3 46 45 44 
2 2 4 2 3 4 3 47 43 42 
2 2 3 2 4 1 2 50 46 
6 2 3 2 3 2 1 53 
8 3 1 3 2 5 1 53 
4 3 3 3 4 2 1 53 
5 4 1 2 3 3 1 53 
4 3 1 4 2 3 1 53 
1 3 1 3 2 5 1 53 
6 2 3 4 1 3 1 53 
6 2 4 3 2 2 1 53 
2 2 1 1 2 3 1 53 
4 1 1 2 4 1 1 53 
9 2 2 2 3 3 1 53 
0 0 0 0 0 0 1 382 
0 0 0 0 0 0 6 55 56 57 59 60 300 
9 0 0 0 0 1 3 64 61 58 
2 0 0 0 0 4 3 64 61 58 
10 0 0 0 0 1 3 64 63 61 
7 0 0 0 0 2 2 63 62 
10 0 0 0 0 5 1 62 
1 0 0 0 0 3 1 61 
7 0 0 0 0 2 1 65 
2 0 0 0 0 3 1 65 
7 0 0 0 0 3 1 65 
7 0 0 0 0 1 1 65 
0 0 0 0 0 0 3 118 160 202 
0 0 0 0 0 0 3 67 68 70 
5 1 1 1 1 1 3 72 71 69 
10 2 2 2 1 1 5 77 76 73 71 353 
5 3 4 1 2 3 6 81 77 76 75 74 73 
9 2 5 1 1 2 2 72 71 
9 3 2 2 2 3 4 81 78 75 74 
8 1 2 4 1 2 3 81 75 73 
7 2 5 3 3 2 3 83 80 78 
6 3 1 2 3 4 3 84 83 80 
10 2 3 2 3 1 2 82 79 
4 2 3 3 2 2 4 87 85 84 82 
7 1 2 3 3 7 4 89 87 84 83 
2 2 3 3 3 2 3 85 84 82 
1 4 1 1 2 1 3 87 84 83 
4 5 2 4 3 4 2 87 82 
2 3 3 4 5 4 2 84 82 
1 3 1 3 2 4 3 89 88 86 
7 5 2 3 4 4 1 85 
7 2 2 4 3 1 2 92 88 
6 2 3 1 1 3 2 90 86 
7 3 3 1 2 3 3 93 92 91 
10 3 4 3 6 3 3 93 92 91 
3 3 4 1 3 2 1 90 
6 2 2 2 1 1 3 96 93 92 
1 4 2 2 1 4 2 93 91 
3 3 3 2 6 1 5 99 97 96 95 94 
2 3 2 3 4 3 4 99 97 95 94 
9 3 3 2 1 2 3 99 97 94 
7 2 1 4 2 3 2 101 98 
9 1 1 3 2 3 2 101 98 
2 2 3 2 4 4 2 101 98 
10 3 1 2 4 1 1 98 
6 2 2 2 4 1 4 116 115 103 100 
10 1 3 3 4 1 3 116 115 100 
6 2 2 1 2 2 4 113 105 104 102 
6 3 2 2 1 3 3 115 113 102 
4 4 3 6 2 1 7 114 112 111 110 109 107 106 
9 2 5 4 3 2 6 113 112 111 108 107 106 
3 3 5 3 2 4 4 110 109 108 107 
10 4 2 4 1 2 2 108 106 
6 1 1 5 1 3 1 117 
8 3 3 2 1 4 1 117 
1 1 2 3 4 4 1 117 
9 2 1 3 1 2 1 117 
5 5 4 2 3 2 1 117 
6 2 3 2 3 1 1 117 
7 1 1 1 1 3 1 117 
7 2 3 2 1 4 1 117 
4 2 2 3 3 2 1 117 
9 2 3 2 2 2 1 117 
2 3 2 1 5 1 1 117 
0 0 0 0 0 0 1 382 
0 0 0 0 0 0 6 119 123 124 126 130 132 
8 1 1 1 1 0 3 127 122 120 
4 1 2 2 4 0 4 141 135 128 121 
3 3 3 4 3 0 8 158 151 143 142 138 136 133 125 
2 3 2 2 2 0 9 158 146 144 143 142 136 134 133 129 
6 3 2 4 2 0 4 146 138 131 127 
5 2 2 3 2 0 8 151 145 143 142 137 135 133 131 
1 3 2 2 5 0 6 157 146 145 144 137 131 
10 3 3 2 4 0 6 151 148 142 138 135 134 
2 1 2 2 5 0 5 148 144 141 135 133 
3 1 4 5 6 0 5 157 151 150 145 134 
3 2 2 1 2 0 3 157 156 135 
2 2 2 1 4 0 3 156 143 139 
8 2 3 1 4 0 2 150 134 
5 3 3 4 3 0 4 152 151 147 145 
9 1 1 3 2 0 3 157 156 140 
4 3 3 1 3 0 2 156 139 
4 2 1 3 2 0 2 150 139 
4 1 2 2 4 0 2 157 139 
8 3 1 4 1 0 2 156 140 
3 3 1 3 1 0 4 154 150 149 147 
10 3 3 2 1 0 1 140 
6 1 4 2 2 0 3 154 149 147 
3 4 2 2 2 0 2 147 143 
9 4 1 1 2 0 4 157 155 153 152 
4 4 2 2 2 0 3 155 153 150 
10 3 4 3 1 0 3 156 154 150 
3 4 3 2 1 0 1 148 
7 5 2 1 4 0 1 148 
8 5 4 2 2 0 2 155 153 
9 1 4 2 2 0 2 156 154 
7 2 4 3 3 0 1 152 
5 1 3 5 1 0 1 152 
1 3 4 2 4 0 1 153 
4 5 2 1 2 0 1 159 
5 1 3 4 3 0 1 159 
2 3 2 6 3 0 2 159 241 
4 1 4 2 1 0 1 159 
1 4 3 3 1 0 1 159 
2 2 1 2 2 0 1 159 
6 1 3 3 1 0 1 159 
0 0 0 0 0 0 1 382 
0 0 0 0 0 0 3 161 162 166 
5 0 1 1 1 1 4 169 165 164 163 
3 0 3 2 1 2 4 175 174 170 167 
7 0 3 2 2 1 6 188 175 174 173 171 170 
9 0 2 1 1 5 3 174 170 167 
7 0 1 3 3 3 5 186 174 172 171 168 
8 0 1 1 5 4 3 173 170 169 
3 0 1 4 2 1 4 186 177 172 168 
10 0 1 7 2 3 6 188 183 181 179 178 173 
3 0 3 2 1 2 5 188 186 180 177 174 
6 0 2 3 4 5 4 183 181 176 172 
9 0 7 3 5 2 6 182 181 180 179 178 177 
4 0 1 1 2 1 6 187 185 182 180 179 178 
10 0 2 2 3 2 5 187 185 182 180 176 
2 0 3 2 1 2 5 185 181 179 178 176 
4 0 3 2 2 2 4 186 181 179 177 
4 0 2 2 3 2 4 193 189 184 378 
5 0 1 3 3 2 3 191 187 185 
5 0 3 2 1 6 2 189 184 
7 0 4 2 4 1 3 192 191 190 
3 0 4 3 3 4 3 192 191 190 
6 0 1 2 2 1 2 191 189 
10 0 2 3 1 4 2 193 189 
8 0 2 3 3 4 2 191 189 
2 0 2 4 3 1 4 195 194 192 191 
2 0 2 3 2 2 3 200 193 190 
6 0 6 4 4 1 3 200 191 190 
1 0 1 6 1 4 1 189 
9 0 2 2 2 2 3 194 192 191 
3 0 4 1 2 2 2 200 190 
5 0 2 1 2 4 3 199 195 194 
8 0 3 2 2 2 4 199 198 197 196 
7 0 2 2 2 1 4 200 199 197 196 
9 0 1 2 2 3 1 194 
2 0 3 4 4 2 3 198 197 196 
7 0 6 1 4 3 3 198 197 196 
7 0 1 5 3 2 1 201 
10 0 3 1 4 4 1 201 
1 0 3 2 2 3 1 201 
10 0 2 1 4 2 1 201 
4 0 4 3 2 2 1 201 
0 0 0 0 0 0 1 382 
0 0 0 0 0 0 5 203 204 205 206 207 
4 0 0 0 0 1 2 212 208 
9 0 0 0 0 3 2 211 208 
7 0 0 0 0 3 2 211 208 
7 0 0 0 0 3 2 210 209 
1 0 0 0 0 2 2 210 209 
2 0 0 0 0 3 1 209 
6 0 0 0 0 2 2 213 373 
6 0 0 0 0 1 1 213 
9 0 0 0 0 4 1 213 
2 0 0 0 0 3 1 213 
0 0 0 0 0 0 3 214 246 258 
0 0 0 0 0 0 6 215 216 217 218 220 244 
4 1 1 0 1 0 4 243 225 222 219 
4 5 4 0 3 0 4 227 226 225 219 
8 4 2 0 3 0 5 227 222 221 219 308 
2 5 1 0 2 0 3 231 225 219 
5 3 3 0 3 0 3 235 230 223 
3 1 2 0 2 0 4 242 241 227 226 
1 1 4 0 5 0 3 240 226 224 
6 4 4 0 3 0 5 239 238 235 234 229 
9 2 4 0 3 0 1 224 
9 1 3 0 1 0 5 241 239 238 234 229 
6 2 1 0 1 0 2 235 228 
1 2 4 0 2 0 3 239 234 232 
1 1 3 0 2 0 3 239 238 229 
8 3 2 0 3 0 1 229 
2 2 3 0 3 0 1 232 
8 1 4 0 5 0 2 240 237 
9 4 2 0 4 0 2 238 236 
10 1 4 0 2 0 1 233 
10 2 1 0 2 0 1 236 
6 6 2 0 5 0 1 237 
8 2 4 0 1 0 1 240 
7 2 1 0 1 0 1 245 
6 4 2 0 2 0 1 245 
1 2 3 0 3 0 1 245 
4 3 1 0 2 0 1 245 
4 1 2 0 2 0 1 245 
4 2 1 0 3 0 1 245 
2 4 4 0 3 0 1 245 
10 2 2 0 2 0 1 245 
10 2 1 0 1 0 1 245 
0 0 0 0 0 0 1 382 
0 0 0 0 0 0 6 247 248 254 255 256 261 
3 0 1 0 0 0 2 253 249 
1 0 2 0 0 0 1 249 
8 0 4 0 0 0 3 252 251 250 
3 0 3 0 0 0 1 257 
2 0 2 0 0 0 1 257 
5 0 4 0 0 0 1 257 
3 0 3 0 0 0 1 257 
5 0 1 0 0 0 1 257 
5 0 2 0 0 0 1 257 
6 0 3 0 0 0 1 257 
0 0 0 0 0 0 3 290 302 324 
0 0 0 0 0 0 7 259 260 261 262 268 287 288 
9 0 1 1 0 1 4 275 266 264 263 
3 0 2 3 0 1 5 284 283 281 275 265 
1 0 3 3 0 5 6 286 284 280 276 274 266 
9 0 3 2 0 3 5 285 284 271 265 375 
6 0 1 4 0 2 3 283 276 265 
7 0 1 2 0 1 3 279 269 267 
7 0 2 3 0 4 2 279 267 
8 0 2 1 0 3 4 283 281 279 270 
1 0 3 3 0 2 3 280 274 270 
4 0 3 3 0 2 3 275 273 269 
5 0 3 1 0 4 2 282 274 
8 0 3 2 0 2 1 272 
7 0 5 3 0 1 1 272 
7 0 1 2 0 4 1 273 
7 0 3 2 0 1 1 277 
1 0 2 4 0 4 1 278 
1 0 4 2 0 1 1 282 
9 0 3 2 0 1 1 281 
9 0 3 4 0 3 1 289 
10 0 2 1 0 3 1 289 
3 0 2 2 0 1 1 289 
5 0 5 4 0 4 1 289 
10 0 2 3 0 2 1 289 
2 0 3 2 0 3 1 289 
7 0 2 1 0 2 1 289 
2 0 5 2 0 4 1 289 
7 0 1 5 0 4 1 289 
10 0 1 1 0 3 1 289 
5 0 2 4 0 2 1 289 
7 0 2 3 0 2 1 289 
0 0 0 0 0 0 1 382 
0 0 0 0 0 0 6 291 292 294 299 300 376 
6 0 0 0 1 0 3 298 295 293 
10 0 0 0 4 0 3 297 296 295 
5 0 0 0 3 0 2 297 296 
6 0 0 0 2 0 1 295 
6 0 0 0 3 0 1 301 
3 0 0 0 2 0 1 301 
6 0 0 0 4 0 1 301 
10 0 0 0 1 0 1 301 
3 0 0 0 3 0 1 301 
4 0 0 0 2 0 1 301 
0 0 0 0 0 0 3 346 358 370 
0 0 0 0 0 0 5 303 304 305 306 311 
1 0 0 1 0 1 3 314 310 307 
6 0 0 3 0 3 3 314 310 307 
5 0 0 2 0 3 4 322 312 310 308 
5 0 0 2 0 3 5 321 314 312 310 309 
10 0 0 2 0 3 4 322 321 312 309 
6 0 0 5 0 2 2 321 309 
2 0 0 2 0 2 4 319 316 315 313 
6 0 0 2 0 1 4 319 316 315 313 
2 0 0 2 0 3 4 322 321 314 312 
5 0 0 3 0 3 3 319 318 317 
4 0 0 4 0 4 2 320 318 
2 0 0 2 0 4 2 318 317 
6 0 0 1 0 2 1 317 
7 0 0 5 0 1 1 317 
7 0 0 1 0 1 1 323 
5 0 0 2 0 3 1 323 
8 0 0 2 0 4 1 323 
8 0 0 4 0 3 1 323 
8 0 0 4 0 2 1 323 
8 0 0 1 0 2 1 323 
0 0 0 0 0 0 1 382 
0 0 0 0 0 0 4 325 326 328 331 
10 0 0 1 1 0 3 330 329 327 
3 0 0 3 3 0 2 337 329 
3 0 0 2 1 0 5 344 337 334 333 332 
7 0 0 3 4 0 2 332 330 
7 0 0 1 1 0 4 344 334 333 332 
5 0 0 3 1 0 3 344 334 333 
3 0 0 3 2 0 4 344 337 335 334 
9 0 0 1 2 0 5 342 339 338 336 335 
6 0 0 2 2 0 4 342 338 336 335 
9 0 0 1 4 0 3 342 339 338 
4 0 0 2 4 0 2 343 340 
1 0 0 4 3 0 2 341 340 
10 0 0 4 3 0 2 341 340 
6 0 0 2 3 0 1 341 
6 0 0 2 2 0 1 340 
1 0 0 3 4 0 1 345 
10 0 0 3 1 0 1 345 
7 0 0 2 1 0 1 345 
10 0 0 4 2 0 1 345 
6 0 0 4 6 0 1 345 
0 0 0 0 0 0 1 382 
0 0 0 0 0 0 8 347 348 350 351 352 354 355 356 
9 0 0 1 0 0 1 349 
10 0 0 5 0 0 1 349 
5 0 0 3 0 0 1 353 
7 0 0 1 0 0 1 353 
3 0 0 3 0 0 1 353 
6 0 0 1 0 0 1 353 
3 0 0 3 0 0 1 357 
3 0 0 1 0 0 1 357 
4 0 0 5 0 0 1 357 
4 0 0 2 0 0 1 357 
0 0 0 0 0 0 1 382 
0 0 0 0 0 0 5 359 360 361 362 363 
3 0 0 0 1 0 3 368 365 364 
1 0 0 0 2 0 3 368 365 364 
6 0 0 0 3 0 3 368 365 364 
4 0 0 0 2 0 1 364 
10 0 0 0 3 0 1 364 
2 0 0 0 3 0 2 367 366 
7 0 0 0 2 0 1 366 
5 0 0 0 2 0 1 369 
5 0 0 0 4 0 1 369 
4 0 0 0 3 0 1 369 
0 0 0 0 0 0 1 382 
0 0 0 0 0 0 4 371 372 374 376 
4 1 0 0 0 0 3 378 375 373 
3 1 0 0 0 0 3 380 379 375 
2 6 0 0 0 0 3 380 379 377 
7 3 0 0 0 0 2 378 377 
9 2 0 0 0 0 1 377 
1 3 0 0 0 0 1 378 
7 2 0 0 0 0 1 381 
1 2 0 0 0 0 1 381 
2 3 0 0 0 0 1 381 
6 2 0 0 0 0 1 381 
0 0 0 0 0 0 1 382 
0 0 0 0 0 0 0 
